\ENCODING=ISO-8859-1
\Problem name: inst_16_cut_n9

Maximize
 obj1: 54 x0 + 71 x1 + 30 x2 + 46 x3 + 42 x4 + 76 x5 + 28 x6 + 65 x7 + 44 x8
Subject To
 c0:    89 x0 + 76 x1 + 56 x2 + 47 x3 + 18 x4 + 29 x5 + 29 x6 + 54 x7 + 67 x8
        + s0 <= 344
 c1:    31 x0 + 77 x1 + 92 x2 + 46 x3 + 68 x4 + 98 x5 + 75 x6 + 94 x7 + 58 x8
        + s1 <= 351
 c2:    79 x0 + 74 x1 + 72 x2 + 30 x3 + 28 x4 + 81 x5 + 92 x6 + 98 x7 + 94 x8
        + s2 <= 177
 c3:    79 x0 + 63 x1 + 86 x2 + x3 + 68 x4 + 91 x5 + 46 x6 + 2 x7 + 63 x8 + s3
        <= 680
 c4:    37 x0 + 5 x1 + 6 x2 + 22 x3 + 19 x4 + 43 x5 + 81 x6 + 52 x7 + 29 x8
        + s4 <= 647
 c5:    75 x0 + 4 x1 + 26 x2 + 22 x3 + x4 + 84 x5 + 28 x6 + 47 x7 + 89 x8 + s5
        <= 653
 c6:    60 x0 + 52 x1 + 81 x2 + 33 x3 + 57 x4 + 22 x5 + 34 x6 + 94 x7 + 29 x8
        + s6 <= 343
 c7:    97 x0 + 34 x1 + 64 x2 + 39 x3 + 25 x4 + 58 x5 + 7 x6 + 47 x7 + 43 x8
        + s7 <= 849
 c8:    2 x0 + 17 x1 + 20 x2 + 48 x3 + 57 x4 + 65 x5 + 83 x6 + 37 x7 + 44 x8
        + s8 <= 629
 c9:    81 x0 + 32 x1 + 41 x2 + 16 x3 + 26 x4 + 80 x5 + 35 x6 + 81 x7 + 50 x8
        + s9 <= 650
 c10:   57 x0 + 15 x1 + 25 x2 + 87 x3 + 24 x4 + 30 x5 + 89 x6 + 64 x7 + 16 x8
        + s10 <= 632
 c11:   4 x0 + 82 x1 + 5 x2 + 88 x3 + 14 x4 + 12 x5 + 81 x6 + 82 x7 + 16 x8
        + s11 <= 469
 c12:   96 x0 + 36 x1 + 24 x2 + 24 x3 + 72 x4 + 46 x5 + 72 x6 + 43 x7 + 48 x8
        + s12 <= 295
 c13:   37 x0 + 46 x1 + 26 x2 + 95 x3 + 16 x4 + 10 x5 + 77 x6 + 80 x7 + 48 x8
        + s13 <= 153
 c14:   91 x0 + 8 x1 + 67 x2 + 62 x3 + 94 x4 + 28 x5 + 79 x6 + 31 x7 + 52 x8
        + s14 <= 677
 cut_1: 88 x0 + 90 x1 + 75 x2 + 86 x3 + 33 x4 + 72 x5 + 124 x6 + 131 x7
        + 107 x8 <= 243
 cut_2: 71 x0 + 71 x1 + 62 x2 + 54 x3 + 26 x4 + 64 x5 + 95 x6 + 100 x7 + 86 x8
        <= 184
 cut_3: 37 x0 + 46 x1 + 26 x2 + 93 x3 + 16 x4 + 11 x5 + 76 x6 + 79 x7 + 48 x8
        <= 151
 cut_4: 84 x0 + 85 x1 + 72 x2 + 76 x3 + 31 x4 + 71 x5 + 116 x6 + 122 x7
        + 102 x8 <= 226
 cut_5: 62 x0 + 69 x1 + 49 x2 + 98 x3 + 24 x4 + 38 x5 + 104 x6 + 109 x7 + 77 x8
        <= 205
 cut_6: 92 x0 + 98 x1 + 77 x2 + 114 x3 + 35 x4 + 68 x5 + 141 x6 + 148 x7
        + 114 x8 <= 276
 cut_7: 70 x0 + 68 x1 + 63 x2 + 37 x3 + 25 x4 + 69 x5 + 87 x6 + 92 x7 + 84 x8
        <= 168
 cut_8: 36 x0 + 40 x1 + 29 x2 + 55 x3 + 14 x4 + 23 x5 + 59 x6 + 62 x7 + 45 x8
        <= 117
 cut_9: 9 x0 + 11 x1 + 6.99999999999999 x2 + 15 x3 + 3 x4 + 6.00000000000001 x5
        + 16 x6 + 17 x7 + 12 x8 <= 32
Bounds
 0 <= x0 <= 1
 0 <= x1 <= 1
 0 <= x2 <= 1
 0 <= x3 <= 1
 0 <= x4 <= 1
 0 <= x5 <= 1
 0 <= x6 <= 1
 0 <= x7 <= 1
 0 <= x8 <= 1
End
